Problem:    interpolazione
Rows:       15
Columns:    21
Non-zeros:  103
Status:     OPTIMAL
Objective:  MassimoErrore = 0 (MINimum)

   No.   Row name   St   Activity     Lower bound   Upper bound    Marginal
------ ------------ -- ------------- ------------- ------------- -------------
     1 Approssimazione[1]
                    NS            10            10             =         < eps
     2 Approssimazione[2]
                    NS            20            20             =         < eps
     3 Approssimazione[3]
                    NS            10            10             =         < eps
     4 Approssimazione[4]
                    NS            15            15             =         < eps
     5 Approssimazione[5]
                    NS             5             5             =         < eps
     6 Approssimazione[6]
                    NS            10            10             =         < eps
     7 Approssimazione[7]
                    NS            10            10             =         < eps
     8 Approssimazione[8]
                    NS            20            20             =         < eps
     9 Approssimazione[9]
                    NS            12            12             =         < eps
    10 Approssimazione[10]
                    NS            25            25             =         < eps
    11 Approssimazione[11]
                    NS             2             2             =         < eps
    12 Approssimazione[12]
                    NS             5             5             =         < eps
    13 MassimoErrore
                    B              0                             
    14 Errore1      B              0            -0               
    15 Errore2      NL             0            -0                         0.5 

   No. Column name  St   Activity     Lower bound   Upper bound    Marginal
------ ------------ -- ------------- ------------- ------------- -------------
     1 x[1]         NL             0             0                       < eps
     2 x[2]         NL             0             0                       < eps
     3 x[3]         NL             0             0                       < eps
     4 x[4]         NL             0             0                       < eps
     5 x[5]         NL             0             0                       < eps
     6 x[6]         NL             0             0                       < eps
     7 x[7]         NL             0             0                       < eps
     8 x[8]         NL             0             0                       < eps
     9 a[1]         B             10                             
    10 a[2]         B             20                             
    11 a[3]         B             10                             
    12 a[4]         B             15                             
    13 a[5]         B              5                             
    14 a[6]         B             10                             
    15 a[7]         B             10                             
    16 a[8]         B             20                             
    17 a[9]         B             12                             
    18 a[10]        B             25                             
    19 a[11]        B              2                             
    20 a[12]        B              5                             
    21 err          B              0                             

Karush-Kuhn-Tucker optimality conditions:

KKT.PE: max.abs.err = 0.00e+00 on row 0
        max.rel.err = 0.00e+00 on row 0
        High quality

KKT.PB: max.abs.err = 0.00e+00 on row 0
        max.rel.err = 0.00e+00 on row 0
        High quality

KKT.DE: max.abs.err = 0.00e+00 on column 0
        max.rel.err = 0.00e+00 on column 0
        High quality

KKT.DB: max.abs.err = 0.00e+00 on row 0
        max.rel.err = 0.00e+00 on row 0
        High quality

End of output
